Al3 Ni5
1.0
3.724778 -3.324487 0.000000
3.724778 3.324487 0.000000
0.000000 0.000000 3.753614
Al Ni
3 5
direct
0.279665 0.279665 0.499999 Al
0.720335 0.720335 0.499999 Al
0.000000 0.000000 0.000000 Al
0.777033 0.222967 0.499999 Ni
0.222967 0.777033 0.499999 Ni
0.000001 0.500001 0.000000 Ni
0.500001 0.000001 0.000000 Ni
0.500000 0.500000 0.000000 Ni
