Al12 Ni4
1.0
4.823257 0.000000 0.000000
0.000000 6.604540 0.000000
0.000000 0.000000 7.375415
Al Ni
12 4
direct
0.915772 0.007465 0.250000 Al
0.362720 0.171349 0.444980 Al
0.362720 0.171349 0.055020 Al
0.862720 0.328651 0.555020 Al
0.137280 0.671349 0.444980 Al
0.637280 0.828651 0.944980 Al
0.137280 0.671349 0.055020 Al
0.637280 0.828651 0.555020 Al
0.862720 0.328651 0.944980 Al
0.584228 0.507465 0.250000 Al
0.084228 0.992535 0.750000 Al
0.415772 0.492535 0.750000 Al
0.443658 0.870512 0.250000 Ni
0.056342 0.370512 0.250000 Ni
0.556342 0.129488 0.750000 Ni
0.943658 0.629488 0.750000 Ni
