Al1
4.10
0 .5 .5
.5 0 .5
.5 .5 0
Al
1
direct
0 0 0 Al
